p cnf 144 1
144 0
w 1 0.123941
w 2 1 1
w 2 -1 0
w 3 2 0
w 3 -2 1
w 4 3 0.584714
w 4 -3 0.756833
w 5 4 0
w 5 -4 1
w 6 5 0.161891
w 6 -5 0.428153
w 7 6 0.498716
w 7 -6 0.831623
w 8 7 1
w 8 -7 0
w 9 8 0.270747
w 9 -8 0.099399
w 10 9 1
w 10 -9 0
w 11 10 0
w 11 -10 1
w 12 11 0.35649
w 12 -11 0.320079
w 13 1 0
w 13 -1 1
w 14 13 2 0.465285
w 14 13 -2 0.792687
w 14 -13 2 0.0413996
w 14 -13 -2 0.996343
w 15 14 3 1
w 15 14 -3 0
w 15 -14 3 1
w 15 -14 -3 0
w 16 15 4 1
w 16 15 -4 1
w 16 -15 4 1
w 16 -15 -4 0
w 17 16 5 1
w 17 16 -5 1
w 17 -16 5 1
w 17 -16 -5 0
w 18 17 6 1
w 18 17 -6 0
w 18 -17 6 0
w 18 -17 -6 0
w 19 18 7 0
w 19 18 -7 0
w 19 -18 7 0
w 19 -18 -7 1
w 20 19 8 0.713421
w 20 19 -8 0.401552
w 20 -19 8 0.704134
w 20 -19 -8 0.75482
w 21 20 9 0
w 21 20 -9 1
w 21 -20 9 0
w 21 -20 -9 1
w 22 21 10 0
w 22 21 -10 0
w 22 -21 10 1
w 22 -21 -10 1
w 23 22 11 0
w 23 22 -11 0
w 23 -22 11 0
w 23 -22 -11 1
w 24 23 12 0
w 24 23 -12 1
w 24 -23 12 0
w 24 -23 -12 0
w 25 13 0.219003
w 25 -13 0.230993
w 26 25 14 0
w 26 25 -14 1
w 26 -25 14 1
w 26 -25 -14 1
w 27 26 15 0.479607
w 27 26 -15 0.966709
w 27 -26 15 0.937254
w 27 -26 -15 0.182165
w 28 27 16 0.0281163
w 28 27 -16 0.8909
w 28 -27 16 0.57349
w 28 -27 -16 0.965144
w 29 28 17 0.278347
w 29 28 -17 0.594222
w 29 -28 17 0.311291
w 29 -28 -17 0.891855
w 30 29 18 0
w 30 29 -18 1
w 30 -29 18 1
w 30 -29 -18 1
w 31 30 19 1
w 31 30 -19 0
w 31 -30 19 0
w 31 -30 -19 0
w 32 31 20 1
w 32 31 -20 1
w 32 -31 20 0
w 32 -31 -20 0
w 33 32 21 1
w 33 32 -21 0
w 33 -32 21 0
w 33 -32 -21 1
w 34 33 22 0
w 34 33 -22 1
w 34 -33 22 0
w 34 -33 -22 0
w 35 34 23 0
w 35 34 -23 0
w 35 -34 23 1
w 35 -34 -23 1
w 36 35 24 0
w 36 35 -24 1
w 36 -35 24 0
w 36 -35 -24 1
w 37 25 0.622116
w 37 -25 0.0567466
w 38 37 26 1
w 38 37 -26 0
w 38 -37 26 1
w 38 -37 -26 0
w 39 38 27 0.698495
w 39 38 -27 0.200521
w 39 -38 27 0.542422
w 39 -38 -27 0.426835
w 40 39 28 0
w 40 39 -28 1
w 40 -39 28 0
w 40 -39 -28 0
w 41 40 29 0.697926
w 41 40 -29 0.444993
w 41 -40 29 0.267405
w 41 -40 -29 0.0589887
w 42 41 30 1
w 42 41 -30 0
w 42 -41 30 1
w 42 -41 -30 0
w 43 42 31 0.55827
w 43 42 -31 0.410788
w 43 -42 31 0.498178
w 43 -42 -31 0.615017
w 44 43 32 1
w 44 43 -32 0
w 44 -43 32 1
w 44 -43 -32 1
w 45 44 33 0
w 45 44 -33 1
w 45 -44 33 1
w 45 -44 -33 1
w 46 45 34 1
w 46 45 -34 1
w 46 -45 34 1
w 46 -45 -34 0
w 47 46 35 0.439657
w 47 46 -35 0.0402029
w 47 -46 35 0.0478743
w 47 -46 -35 0.498645
w 48 47 36 1
w 48 47 -36 1
w 48 -47 36 1
w 48 -47 -36 0
w 49 37 0
w 49 -37 1
w 50 49 38 0.184791
w 50 49 -38 0.0428708
w 50 -49 38 0.485965
w 50 -49 -38 0.582047
w 51 50 39 0
w 51 50 -39 1
w 51 -50 39 0
w 51 -50 -39 1
w 52 51 40 0.0740613
w 52 51 -40 0.0837275
w 52 -51 40 0.430318
w 52 -51 -40 0.200581
w 53 52 41 0.276872
w 53 52 -41 0.942311
w 53 -52 41 0.488008
w 53 -52 -41 0.0573412
w 54 53 42 1
w 54 53 -42 0
w 54 -53 42 1
w 54 -53 -42 1
w 55 54 43 0
w 55 54 -43 1
w 55 -54 43 1
w 55 -54 -43 1
w 56 55 44 0
w 56 55 -44 0
w 56 -55 44 0
w 56 -55 -44 1
w 57 56 45 0
w 57 56 -45 1
w 57 -56 45 0
w 57 -56 -45 0
w 58 57 46 0
w 58 57 -46 0
w 58 -57 46 0
w 58 -57 -46 1
w 59 58 47 0
w 59 58 -47 1
w 59 -58 47 1
w 59 -58 -47 1
w 60 59 48 0
w 60 59 -48 1
w 60 -59 48 1
w 60 -59 -48 1
w 61 49 1
w 61 -49 0
w 62 61 50 1
w 62 61 -50 0
w 62 -61 50 1
w 62 -61 -50 0
w 63 62 51 0.34678
w 63 62 -51 0.716785
w 63 -62 51 0.562568
w 63 -62 -51 0.491396
w 64 63 52 0.346258
w 64 63 -52 0.802721
w 64 -63 52 0.134726
w 64 -63 -52 0.497032
w 65 64 53 1
w 65 64 -53 0
w 65 -64 53 0
w 65 -64 -53 0
w 66 65 54 0.72988
w 66 65 -54 0.407585
w 66 -65 54 0.474144
w 66 -65 -54 0.757629
w 67 66 55 0
w 67 66 -55 1
w 67 -66 55 1
w 67 -66 -55 1
w 68 67 56 1
w 68 67 -56 0
w 68 -67 56 1
w 68 -67 -56 1
w 69 68 57 0
w 69 68 -57 0
w 69 -68 57 0
w 69 -68 -57 1
w 70 69 58 1
w 70 69 -58 1
w 70 -69 58 0
w 70 -69 -58 1
w 71 70 59 0.878757
w 71 70 -59 0.718092
w 71 -70 59 0.614462
w 71 -70 -59 0.833655
w 72 71 60 1
w 72 71 -60 0
w 72 -71 60 0
w 72 -71 -60 0
w 73 61 1
w 73 -61 0
w 74 73 62 0.440991
w 74 73 -62 0.696403
w 74 -73 62 0.0813977
w 74 -73 -62 0.804935
w 75 74 63 0
w 75 74 -63 0
w 75 -74 63 1
w 75 -74 -63 1
w 76 75 64 1
w 76 75 -64 1
w 76 -75 64 0
w 76 -75 -64 0
w 77 76 65 1
w 77 76 -65 0
w 77 -76 65 0
w 77 -76 -65 0
w 78 77 66 0.724078
w 78 77 -66 0.692857
w 78 -77 66 0.800552
w 78 -77 -66 0.301005
w 79 78 67 1
w 79 78 -67 0
w 79 -78 67 0
w 79 -78 -67 0
w 80 79 68 0
w 80 79 -68 0
w 80 -79 68 1
w 80 -79 -68 1
w 81 80 69 0.987357
w 81 80 -69 0.0190727
w 81 -80 69 0.724289
w 81 -80 -69 0.941233
w 82 81 70 1
w 82 81 -70 1
w 82 -81 70 0
w 82 -81 -70 1
w 83 82 71 0.955046
w 83 82 -71 0.830075
w 83 -82 71 0.0376711
w 83 -82 -71 0.961033
w 84 83 72 0.00456843
w 84 83 -72 0.685112
w 84 -83 72 0.601327
w 84 -83 -72 0.80512
w 85 73 0.638527
w 85 -73 0.846912
w 86 85 74 0
w 86 85 -74 0
w 86 -85 74 1
w 86 -85 -74 0
w 87 86 75 0
w 87 86 -75 0
w 87 -86 75 1
w 87 -86 -75 1
w 88 87 76 0.00480633
w 88 87 -76 0.547349
w 88 -87 76 0.00625137
w 88 -87 -76 0.300433
w 89 88 77 0
w 89 88 -77 1
w 89 -88 77 1
w 89 -88 -77 1
w 90 89 78 1
w 90 89 -78 0
w 90 -89 78 0
w 90 -89 -78 0
w 91 90 79 1
w 91 90 -79 0
w 91 -90 79 0
w 91 -90 -79 1
w 92 91 80 0
w 92 91 -80 1
w 92 -91 80 1
w 92 -91 -80 1
w 93 92 81 0.401016
w 93 92 -81 0.764519
w 93 -92 81 0.907258
w 93 -92 -81 0.542655
w 94 93 82 1
w 94 93 -82 1
w 94 -93 82 0
w 94 -93 -82 1
w 95 94 83 0
w 95 94 -83 0
w 95 -94 83 0
w 95 -94 -83 1
w 96 95 84 0
w 96 95 -84 1
w 96 -95 84 0
w 96 -95 -84 1
w 97 85 0
w 97 -85 1
w 98 97 86 1
w 98 97 -86 1
w 98 -97 86 0
w 98 -97 -86 1
w 99 98 87 0
w 99 98 -87 0
w 99 -98 87 0
w 99 -98 -87 1
w 100 99 88 0.491334
w 100 99 -88 0.147346
w 100 -99 88 0.41813
w 100 -99 -88 0.403399
w 101 100 89 0
w 101 100 -89 1
w 101 -100 89 0
w 101 -100 -89 1
w 102 101 90 0
w 102 101 -90 1
w 102 -101 90 1
w 102 -101 -90 1
w 103 102 91 0.870758
w 103 102 -91 0.72551
w 103 -102 91 0.878066
w 103 -102 -91 0.0103838
w 104 103 92 1
w 104 103 -92 0
w 104 -103 92 0
w 104 -103 -92 0
w 105 104 93 0
w 105 104 -93 0
w 105 -104 93 1
w 105 -104 -93 0
w 106 105 94 1
w 106 105 -94 0
w 106 -105 94 0
w 106 -105 -94 1
w 107 106 95 1
w 107 106 -95 1
w 107 -106 95 0
w 107 -106 -95 0
w 108 107 96 1
w 108 107 -96 1
w 108 -107 96 0
w 108 -107 -96 0
w 109 97 0.875559
w 109 -97 0.141015
w 110 109 98 0
w 110 109 -98 1
w 110 -109 98 1
w 110 -109 -98 0
w 111 110 99 1
w 111 110 -99 0
w 111 -110 99 0
w 111 -110 -99 0
w 112 111 100 1
w 112 111 -100 0
w 112 -111 100 1
w 112 -111 -100 1
w 113 112 101 1
w 113 112 -101 0
w 113 -112 101 0
w 113 -112 -101 0
w 114 113 102 0.498579
w 114 113 -102 0.0423635
w 114 -113 102 0.119606
w 114 -113 -102 0.682757
w 115 114 103 0.124406
w 115 114 -103 0.0982627
w 115 -114 103 0.859308
w 115 -114 -103 0.999965
w 116 115 104 1
w 116 115 -104 1
w 116 -115 104 0
w 116 -115 -104 0
w 117 116 105 0.364128
w 117 116 -105 0.316737
w 117 -116 105 0.340814
w 117 -116 -105 0.0612754
w 118 117 106 1
w 118 117 -106 0
w 118 -117 106 1
w 118 -117 -106 0
w 119 118 107 0
w 119 118 -107 1
w 119 -118 107 1
w 119 -118 -107 0
w 120 119 108 0.497508
w 120 119 -108 0.90216
w 120 -119 108 0.974159
w 120 -119 -108 0.617113
w 121 109 0
w 121 -109 1
w 122 121 110 1
w 122 121 -110 0
w 122 -121 110 1
w 122 -121 -110 1
w 123 122 111 0
w 123 122 -111 1
w 123 -122 111 1
w 123 -122 -111 1
w 124 123 112 0.526725
w 124 123 -112 0.8343
w 124 -123 112 0.0181193
w 124 -123 -112 0.943532
w 125 124 113 0
w 125 124 -113 1
w 125 -124 113 0
w 125 -124 -113 1
w 126 125 114 0.898715
w 126 125 -114 0.62711
w 126 -125 114 0.299732
w 126 -125 -114 0.830511
w 127 126 115 1
w 127 126 -115 0
w 127 -126 115 1
w 127 -126 -115 1
w 128 127 116 0.483251
w 128 127 -116 0.46999
w 128 -127 116 0.600787
w 128 -127 -116 0.224735
w 129 128 117 1
w 129 128 -117 0
w 129 -128 117 1
w 129 -128 -117 0
w 130 129 118 0
w 130 129 -118 1
w 130 -129 118 1
w 130 -129 -118 0
w 131 130 119 1
w 131 130 -119 0
w 131 -130 119 0
w 131 -130 -119 0
w 132 131 120 0
w 132 131 -120 0
w 132 -131 120 1
w 132 -131 -120 0
w 133 121 1
w 133 -121 0
w 134 133 122 0.890348
w 134 133 -122 0.524038
w 134 -133 122 0.644892
w 134 -133 -122 0.373598
w 135 134 123 0.245679
w 135 134 -123 0.598333
w 135 -134 123 0.386476
w 135 -134 -123 0.276615
w 136 135 124 1
w 136 135 -124 1
w 136 -135 124 1
w 136 -135 -124 0
w 137 136 125 0
w 137 136 -125 0
w 137 -136 125 1
w 137 -136 -125 1
w 138 137 126 0
w 138 137 -126 1
w 138 -137 126 0
w 138 -137 -126 0
w 139 138 127 0.0186859
w 139 138 -127 0.106761
w 139 -138 127 0.997117
w 139 -138 -127 0.167303
w 140 139 128 0.868934
w 140 139 -128 0.0576504
w 140 -139 128 0.368028
w 140 -139 -128 0.513826
w 141 140 129 1
w 141 140 -129 0
w 141 -140 129 1
w 141 -140 -129 1
w 142 141 130 1
w 142 141 -130 1
w 142 -141 130 1
w 142 -141 -130 0
w 143 142 131 1
w 143 142 -131 0
w 143 -142 131 1
w 143 -142 -131 1
w 144 143 132 0
w 144 143 -132 1
w 144 -143 132 1
w 144 -143 -132 1